(declare-const A Real)
(assert (= (< (- 1 A) 0) false))
(declare-const B Real)
(assert (= (< (- B 1) 0) false))
(declare-const x Real)
(assert (= (< (- B x) 0) false))
(declare-const y Real)
(assert (= (< (- B y) 0) false))
(declare-const u Real)
(assert (= (< u 0) false))
(declare-const v Real)
(assert (= (< v 0) false))
(assert (= (< 0 (- A u)) true))
(assert (not (=> (= (< 0 (* A A)) true) (=> (= (< (* A (- 1 A)) 0) false) (=> (= (< (* A (- B 1)) 0) false) (=> (= (< (* A (- B x)) 0) false) (=> (= (< (* A (- B y)) 0) false) (=> (= (< (* A u) 0) false) (=> (= (< (* A v) 0) false) (=> (= (< 0 (* A (- A u))) true) (=> (= (< 0 (* A (- A v))) true) (=> (= (< (* (- 1 A) A) 0) false) (=> (= (< (* (- 1 A) (- 1 A)) 0) false) (=> (= (< (* (- 1 A) (- B 1)) 0) false) (=> (= (< (* (- 1 A) (- B x)) 0) false) (=> (= (< (* (- 1 A) (- B y)) 0) false) (=> (= (< (* (- 1 A) u) 0) false) (=> (= (< (* (- 1 A) v) 0) false) (=> (= (< (* (- 1 A) (- A u)) 0) false) (=> (= (< (* (- 1 A) (- A v)) 0) false) (=> (= (< (* (- B 1) A) 0) false) (=> (= (< (* (- B 1) (- 1 A)) 0) false) (=> (= (< (* (- B 1) (- B 1)) 0) false) (=> (= (< (* (- B 1) (- B x)) 0) false) (=> (= (< (* (- B 1) (- B y)) 0) false) (=> (= (< (* (- B 1) u) 0) false) (=> (= (< (* (- B 1) v) 0) false) (=> (= (< (* (- B 1) (- A u)) 0) false) (=> (= (< (* (- B 1) (- A v)) 0) false) (=> (= (< (* (- B x) A) 0) false) (=> (= (< (* (- B x) (- 1 A)) 0) false) (=> (= (< (* (- B x) (- B 1)) 0) false) (=> (= (< (* (- B x) (- B x)) 0) false) (=> (= (< (* (- B x) (- B y)) 0) false) (=> (= (< (* (- B x) u) 0) false) (=> (= (< (* (- B x) v) 0) false) (=> (= (< (* (- B x) (- A u)) 0) false) (=> (= (< (* (- B x) (- A v)) 0) false) (=> (= (< (* (- B y) A) 0) false) (=> (= (< (* (- B y) (- 1 A)) 0) false) (=> (= (< (* (- B y) (- B 1)) 0) false) (=> (= (< (* (- B y) (- B x)) 0) false) (=> (= (< (* (- B y) (- B y)) 0) false) (=> (= (< (* (- B y) u) 0) false) (=> (= (< (* (- B y) v) 0) false) (=> (= (< (* (- B y) (- A u)) 0) false) (=> (= (< (* (- B y) (- A v)) 0) false) (=> (= (< (* u A) 0) false) (=> (= (< (* u (- 1 A)) 0) false) (=> (= (< (* u (- B 1)) 0) false) (=> (= (< (* u (- B x)) 0) false) (=> (= (< (* u (- B y)) 0) false) (=> (= (< (* u u) 0) false) (=> (= (< (* u v) 0) false) (=> (= (< (* u (- A u)) 0) false) (=> (= (< (* u (- A v)) 0) false) (=> (= (< (* v A) 0) false) (=> (= (< (* v (- 1 A)) 0) false) (=> (= (< (* v (- B 1)) 0) false) (=> (= (< (* v (- B x)) 0) false) (=> (= (< (* v (- B y)) 0) false) (=> (= (< (* v u) 0) false) (=> (= (< (* v v) 0) false) (=> (= (< (* v (- A u)) 0) false) (=> (= (< (* v (- A v)) 0) false) (=> (= (< 0 (* (- A u) A)) true) (=> (= (< (* (- A u) (- 1 A)) 0) false) (=> (= (< (* (- A u) (- B 1)) 0) false) (=> (= (< (* (- A u) (- B x)) 0) false) (=> (= (< (* (- A u) (- B y)) 0) false) (=> (= (< (* (- A u) u) 0) false) (=> (= (< (* (- A u) v) 0) false) (=> (= (< 0 (* (- A u) (- A u))) true) (=> (= (< 0 (* (- A u) (- A v))) true) (=> (= (< 0 (* (- A v) A)) true) (=> (= (< (* (- A v) (- 1 A)) 0) false) (=> (= (< (* (- A v) (- B 1)) 0) false) (=> (= (< (* (- A v) (- B x)) 0) false) (=> (= (< (* (- A v) (- B y)) 0) false) (=> (= (< (* (- A v) u) 0) false) (=> (= (< (* (- A v) v) 0) false) (=> (= (< 0 (* (- A v) (- A u))) true) (=> (= (< 0 (* (- A v) (- A v))) true) (= (< (+ (+ (* u y) (* v x)) (* u v)) (* (* 3 A) B)) true))))))))))))))))))))))))))))))))))))))))))))))))))))))))))))))))))))))))))))))))))))
(check-sat)
